p tw 28 42
1 2
1 15
1 17
2 12
2 25
3 4
3 9
3 17
4 7
4 19
5 10
5 18
5 28
6 8
6 16
6 21
7 14
7 26
8 10
8 24
9 11
9 19
10 24
11 12
11 13
12 27
13 19
13 25
14 16
14 21
15 16
15 22
17 26
18 27
18 28
20 22
20 23
20 27
21 23
22 28
23 25
24 26
